data;

set pallet := 1 2 3 4 5;
set machine := 1 2;
set part := 1 2 3 4;
set scenario := 1 2 3 4 5 6;

param prob:=
1 0.18
2 0.3
3 0.12
4 0.12
5 0.2
6 0.08;


param tt:=
1 0.1
2 0.1
3 0.15
4 0.2
5 0.15;


param mt:1 2 3 4:=
1 0.4 0.6 0.6 0.5
2 0.45 0.7 0.8 0.7;

param imp:=
1 1
2 1
3 3
4 4;

param h : 1 2 3 4 5 6:=
1 446.4 446.4 446.4 446.4 446.4 446.4 
2 460.8 460.8 460.8 408 408 408;

param dem:1 2 3 4 5 6:=
1 750 600 480 750 600 480
2 300 300 300 300 300 300
3 400 400 400 400 400 400
4 260 260 260 260 260 260;

param buff:=
1 3
2 3;

param np:=
1 4
2 4
3 4
4 4
5 4;

param M: 1 2 3 4:=
1 1 0 0 0
2 1 0 0 0
3 0 1 0 0
4 0 0 1 0
5 0 0 0 1;

param B: 1 2:=
1 1 0
2 0 1
3 1 1
4 1 1
5 1 1;

param tfix:1 2:=
1 1.6 0
2 0 1.8
3 2.4 2.8
4 2.4 3.6
5 2 2.8;





 











